44
NANO CLASTER
Au 0.000000000 2.121320344 0.000000000
Au 0.500000000 1.414213562 0.500000000
Au 0.500000000 1.414213562 -0.500000000
Au -0.500000000 1.414213562 0.500000000
Au -0.500000000 1.414213562 -0.500000000
Au 1.000000000 0.707106781 1.000000000
Au 1.000000000 0.707106781 0.000000000
Au 1.000000000 0.707106781 -1.000000000
Au 0.000000000 0.707106781 1.000000000
Au 0.000000000 0.707106781 0.000000000
Au 0.000000000 0.707106781 -1.000000000
Au -1.000000000 0.707106781 1.000000000
Au -1.000000000 0.707106781 0.000000000
Au -1.000000000 0.707106781 -1.000000000
Au 1.500000000 0.000000000 1.500000000
Au 1.500000000 0.000000000 0.500000000
Au 1.500000000 0.000000000 -0.500000000
Au 1.500000000 0.000000000 -1.500000000
Au 0.500000000 0.000000000 1.500000000
Au 0.500000000 0.000000000 0.500000000
Au 0.500000000 0.000000000 -0.500000000
Au 0.500000000 0.000000000 -1.500000000
Au -0.500000000 0.000000000 1.500000000
Au -0.500000000 0.000000000 0.500000000
Au -0.500000000 0.000000000 -0.500000000
Au -0.500000000 0.000000000 -1.500000000
Au -1.500000000 0.000000000 1.500000000
Au -1.500000000 0.000000000 0.500000000
Au -1.500000000 0.000000000 -0.500000000
Au -1.500000000 0.000000000 -1.500000000
Au 1.000000000 -0.707106781 1.000000000
Au 1.000000000 -0.707106781 0.000000000
Au 1.000000000 -0.707106781 -1.000000000
Au 0.000000000 -0.707106781 1.000000000
Au 0.000000000 -0.707106781 0.000000000
Au 0.000000000 -0.707106781 -1.000000000
Au -1.000000000 -0.707106781 1.000000000
Au -1.000000000 -0.707106781 0.000000000
Au -1.000000000 -0.707106781 -1.000000000
Au 0.500000000 -1.414213562 0.500000000
Au 0.500000000 -1.414213562 -0.500000000
Au -0.500000000 -1.414213562 0.500000000
Au -0.500000000 -1.414213562 -0.500000000
Au 0.000000000 -2.121320344 0.000000000
